NAME          DCAP_3_4_2_500_SS51
ROWS
 N  OBJ
 L  CON1
 L  CON2
 L  CON3
 L  CON4
 L  CON5
 L  CON6
 L  CON7
 L  CON8
 L  CON9
 L  CON10
 L  CON11
 L  CON12
 E  CON13
 E  CON14
 E  CON15
 E  CON16
 E  CON17
 E  CON18
 E  CON19
 E  CON20
COLUMNS
    x[1,1]    OBJ       6.180167      CON1      1.000000    
    x[1,1]    CON7      -1.000000     CON8      -1.000000   
    x[1,2]    OBJ       5.039546      CON2      1.000000    
    x[1,2]    CON8      -1.000000   
    x[2,1]    OBJ       6.732585      CON3      1.000000    
    x[2,1]    CON9      -1.000000     CON10     -1.000000   
    x[2,2]    OBJ       7.443064      CON4      1.000000    
    x[2,2]    CON10     -1.000000   
    x[3,1]    OBJ       6.563535      CON5      1.000000    
    x[3,1]    CON11     -1.000000     CON12     -1.000000   
    x[3,2]    OBJ       6.054841      CON6      1.000000    
    x[3,2]    CON12     -1.000000   
    MARKER    'MARKER'                'INTORG'
    u[1,1]    OBJ       48.076654     CON1      -1.000000   
    u[1,2]    OBJ       49.466655     CON2      -1.000000   
    u[2,1]    OBJ       49.996186     CON3      -1.000000   
    u[2,2]    OBJ       32.230043     CON4      -1.000000   
    u[3,1]    OBJ       20.066487     CON5      -1.000000   
    u[3,2]    OBJ       27.484319     CON6      -1.000000   
    y[1,1,1]  OBJ       9.209038      CON7      1.425493    
    y[1,1,1]  CON13     1.000000    
    y[1,1,2]  OBJ       9.562286      CON8      1.207223    
    y[1,1,2]  CON14     1.000000    
    y[1,2,1]  OBJ       7.555605      CON7      0.975728    
    y[1,2,1]  CON15     1.000000    
    y[1,2,2]  OBJ       8.588145      CON8      1.422703    
    y[1,2,2]  CON16     1.000000    
    y[1,3,1]  OBJ       9.531067      CON7      1.413802    
    y[1,3,1]  CON17     1.000000    
    y[1,3,2]  OBJ       9.960121      CON8      0.652244    
    y[1,3,2]  CON18     1.000000    
    y[1,4,1]  OBJ       6.735114      CON7      1.443467    
    y[1,4,1]  CON19     1.000000    
    y[1,4,2]  OBJ       7.475592      CON8      0.952510    
    y[1,4,2]  CON20     1.000000    
    y[2,1,1]  OBJ       9.396613      CON9      1.425493    
    y[2,1,1]  CON13     1.000000    
    y[2,1,2]  OBJ       7.029498      CON10     1.207223    
    y[2,1,2]  CON14     1.000000    
    y[2,2,1]  OBJ       6.761962      CON9      0.975728    
    y[2,2,1]  CON15     1.000000    
    y[2,2,2]  OBJ       9.762891      CON10     1.422703    
    y[2,2,2]  CON16     1.000000    
    y[2,3,1]  OBJ       8.668308      CON9      1.413802    
    y[2,3,1]  CON17     1.000000    
    y[2,3,2]  OBJ       5.719473      CON10     0.652244    
    y[2,3,2]  CON18     1.000000    
    y[2,4,1]  OBJ       6.812620      CON9      1.443467    
    y[2,4,1]  CON19     1.000000    
    y[2,4,2]  OBJ       5.738061      CON10     0.952510    
    y[2,4,2]  CON20     1.000000    
    y[3,1,1]  OBJ       9.491307      CON11     1.425493    
    y[3,1,1]  CON13     1.000000    
    y[3,1,2]  OBJ       8.896596      CON12     1.207223    
    y[3,1,2]  CON14     1.000000    
    y[3,2,1]  OBJ       7.167367      CON11     0.975728    
    y[3,2,1]  CON15     1.000000    
    y[3,2,2]  OBJ       8.791104      CON12     1.422703    
    y[3,2,2]  CON16     1.000000    
    y[3,3,1]  OBJ       8.307653      CON11     1.413802    
    y[3,3,1]  CON17     1.000000    
    y[3,3,2]  OBJ       6.498185      CON12     0.652244    
    y[3,3,2]  CON18     1.000000    
    y[3,4,1]  OBJ       8.905048      CON11     1.443467    
    y[3,4,1]  CON19     1.000000    
    y[3,4,2]  OBJ       8.668473      CON12     0.952510    
    y[3,4,2]  CON20     1.000000    
    z[1,1]    OBJ       552.157119    CON13     1.000000    
    z[1,2]    OBJ       834.153886    CON14     1.000000    
    z[2,1]    OBJ       857.671574    CON15     1.000000    
    z[2,2]    OBJ       962.170870    CON16     1.000000    
    z[3,1]    OBJ       742.799232    CON17     1.000000    
    z[3,2]    OBJ       679.337535    CON18     1.000000    
    z[4,1]    OBJ       697.064957    CON19     1.000000    
    z[4,2]    OBJ       695.643295    CON20     1.000000    
    MARKER    'MARKER'                 'INTEND'
RHS
    RHS       CON1      -0.000000     CON2      -0.000000   
    RHS       CON3      -0.000000     CON4      -0.000000   
    RHS       CON5      -0.000000     CON6      -0.000000   
    RHS       CON7      -0.000000     CON8      -0.000000   
    RHS       CON9      -0.000000     CON10     -0.000000   
    RHS       CON11     -0.000000     CON12     -0.000000   
    RHS       CON13     1.000000      CON14     1.000000    
    RHS       CON15     1.000000      CON16     1.000000    
    RHS       CON17     1.000000      CON18     1.000000    
    RHS       CON19     1.000000      CON20     1.000000    
BOUNDS
 BV BOUND     u[1,1]  
 BV BOUND     u[1,2]  
 BV BOUND     u[2,1]  
 BV BOUND     u[2,2]  
 BV BOUND     u[3,1]  
 BV BOUND     u[3,2]  
 BV BOUND     y[1,1,1]
 BV BOUND     y[1,1,2]
 BV BOUND     y[1,2,1]
 BV BOUND     y[1,2,2]
 BV BOUND     y[1,3,1]
 BV BOUND     y[1,3,2]
 BV BOUND     y[1,4,1]
 BV BOUND     y[1,4,2]
 BV BOUND     y[2,1,1]
 BV BOUND     y[2,1,2]
 BV BOUND     y[2,2,1]
 BV BOUND     y[2,2,2]
 BV BOUND     y[2,3,1]
 BV BOUND     y[2,3,2]
 BV BOUND     y[2,4,1]
 BV BOUND     y[2,4,2]
 BV BOUND     y[3,1,1]
 BV BOUND     y[3,1,2]
 BV BOUND     y[3,2,1]
 BV BOUND     y[3,2,2]
 BV BOUND     y[3,3,1]
 BV BOUND     y[3,3,2]
 BV BOUND     y[3,4,1]
 BV BOUND     y[3,4,2]
 BV BOUND     z[1,1]  
 BV BOUND     z[1,2]  
 BV BOUND     z[2,1]  
 BV BOUND     z[2,2]  
 BV BOUND     z[3,1]  
 BV BOUND     z[3,2]  
 BV BOUND     z[4,1]  
 BV BOUND     z[4,2]  
ENDATA
